WARNING: for repeatability, setting FPU to use double precision
============================[ Problem Statistics ]=============================
|                                                                             |
|  Number of symmetries:          23                                          |
|  Number of invertingSyms:        0                                          |
|  Number of variables:           156                                         |
|  Number of clauses:             949                                         |
|  Parse time:                   0.00 s                                       |
|                                                                             |
============================[ Search Statistics ]==============================
| Conflicts |          ORIGINAL         |          LEARNT          | Progress |
|           |    Vars  Clauses Literals |    Limit  Clauses Lit/Cl |          |
===============================================================================
|       100 |     156      949     2028 |      347      100     67 |  0.004 % |
|       250 |     156      949     2028 |      382      250     50 |  0.004 % |
|       475 |     156      949     2028 |      421      272     40 |  0.004 % |
|       812 |     156      949     2028 |      463      346     42 |  0.004 % |
|      1318 |     156      949     2028 |      509      287     41 |  0.004 % |
|      2077 |     156      949     2028 |      560      455     45 |  0.004 % |
|      3216 |     156      949     2028 |      616      311     43 |  0.004 % |
|      4924 |     156      949     2028 |      678      323     45 |  0.004 % |
|      7486 |     156      949     2028 |      745      605     42 |  0.004 % |
|     11330 |     156      949     2028 |      820      729     48 |  0.004 % |
|     17096 |     156      949     2028 |      902      607     47 |  0.004 % |
|     25745 |     156      949     2028 |      992      502     52 |  0.004 % |
|     38719 |     156      949     2028 |     1092      762     53 |  0.004 % |
|     58180 |     156      949     2028 |     1201      987     58 |  0.004 % |
|     87372 |     156      949     2028 |     1321      949     42 |  0.004 % |
|    131161 |     156      949     2028 |     1453      803     52 |  0.004 % |
|    196845 |     156      949     2028 |     1598      963     54 |  0.004 % |
|    295371 |     156      949     2028 |     1758     1335     52 |  0.004 % |
|    443160 |     156      949     2028 |     1934     1594     49 |  0.004 % |
|    664843 |     156      949     2028 |     2128     1543     55 |  0.004 % |
|    997368 |     156      949     2028 |     2340     2208     54 |  0.004 % |
===============================================================================
restarts              : 2046
conflicts             : 1020010        (63002 /sec)
symconflicts          : 177990         (10994 /sec)
decisions             : 1687199        (0.00 % random) (104212 /sec)
propagations          : 18504142       (1142937 /sec)
sympropagations       : 716463         (44253 /sec)
conflict literals     : 57522462       (6.79 % deleted)
Memory used           : 6.00 MB
CPU time              : 16.19 s

UNSATISFIABLE
